750
750 750
1 524 74
2 522 326
3 522 703
4 522 452
5 520 757
6 520 883
7 519 381
8 519 199
9 519 905
10 519 874
11 518 807
12 517 647
13 517 944
14 517 591
15 517 154
16 516 973
17 515 127
18 514 405
19 514 168
20 514 945
21 514 783
22 514 744
23 513 542
24 513 737
25 511 433
26 510 140
27 510 366
28 509 874
29 509 994
30 509 678
31 509 472
32 508 377
33 506 843
34 505 156
35 505 185
36 504 128
37 504 886
38 504 80
39 504 112
40 504 442
41 503 201
42 503 818
43 503 95
44 503 779
45 503 355
46 502 785
47 501 968
48 501 652
49 501 378
50 499 426
51 499 338
52 499 144
53 498 113
54 498 317
55 498 557
56 498 412
57 496 293
58 496 83
59 494 836
60 494 24
61 494 652
62 493 928
63 493 562
64 493 634
65 492 868
66 492 721
67 491 687
68 490 600
69 490 392
70 489 51
71 489 3
72 489 188
73 488 353
74 488 425
75 488 702
76 488 720
77 488 12
78 487 962
79 486 550
80 485 947
81 484 466
82 482 102
83 481 288
84 481 951
85 480 382
86 480 992
87 480 427
88 477 15
89 476 202
90 475 870
91 475 641
92 475 872
93 475 961
94 475 704
95 475 226
96 474 929
97 474 630
98 474 238
99 473 575
100 473 332
101 472 696
102 471 231
103 471 664
104 470 452
105 470 720
106 469 224
107 469 727
108 467 656
109 466 218
110 466 629
111 466 909
112 465 784
113 464 113
114 464 882
115 463 202
116 462 619
117 462 600
118 461 294
119 460 3
120 459 472
121 459 345
122 458 132
123 458 975
124 458 406
125 456 799
126 455 574
127 455 874
128 452 238
129 452 21
130 452 192
131 452 915
132 452 625
133 452 366
134 450 54
135 450 786
136 450 37
137 450 435
138 449 548
139 449 283
140 448 591
141 447 449
142 447 41
143 446 308
144 445 760
145 444 346
146 444 130
147 444 116
148 444 211
149 444 10
150 443 680
151 443 162
152 442 307
153 442 497
154 442 324
155 440 263
156 440 924
157 440 463
158 439 361
159 439 664
160 439 916
161 438 925
162 437 245
163 437 115
164 437 291
165 436 935
166 434 366
167 434 931
168 434 83
169 434 643
170 433 5
171 433 628
172 433 690
173 432 57
174 432 758
175 430 682
176 429 515
177 428 662
178 427 952
179 426 397
180 426 399
181 426 184
182 425 667
183 424 619
184 424 287
185 422 380
186 422 911
187 421 43
188 420 602
189 420 3
190 420 2
191 419 711
192 418 106
193 418 725
194 418 852
195 416 558
196 415 58
197 414 456
198 414 440
199 414 559
200 412 533
201 411 516
202 411 621
203 410 450
204 410 367
205 409 399
206 408 764
207 407 42
208 407 431
209 407 606
210 406 661
211 406 87
212 406 935
213 406 737
214 406 17
215 405 407
216 405 329
217 405 420
218 405 999
219 403 615
220 403 185
221 403 772
222 403 344
223 403 521
224 402 423
225 401 732
226 400 610
227 400 258
228 400 187
229 400 473
230 400 781
231 399 830
232 397 75
233 396 729
234 396 157
235 394 553
236 393 492
237 392 674
238 392 38
239 392 658
240 391 529
241 391 154
242 389 104
243 389 336
244 389 875
245 389 338
246 388 809
247 387 44
248 385 717
249 384 304
250 384 797
251 384 179
252 382 950
253 382 698
254 380 499
255 380 754
256 380 556
257 378 204
258 378 346
259 377 317
260 377 277
261 376 490
262 376 253
263 376 450
264 376 733
265 375 833
266 375 729
267 373 368
268 372 188
269 372 522
270 371 14
271 369 597
272 368 356
273 368 55
274 366 899
275 366 445
276 366 316
277 366 704
278 366 693
279 365 655
280 364 14
281 363 977
282 361 420
283 361 631
284 361 533
285 360 857
286 359 805
287 358 42
288 358 90
289 357 555
290 357 985
291 356 884
292 355 724
293 352 128
294 351 643
295 351 106
296 351 848
297 351 85
298 351 800
299 349 151
300 349 73
301 349 579
302 346 327
303 346 894
304 345 711
305 345 378
306 345 95
307 344 433
308 344 128
309 343 359
310 343 437
311 341 13
312 341 187
313 340 871
314 340 7
315 340 231
316 340 106
317 339 143
318 338 121
319 338 570
320 337 82
321 337 385
322 335 366
323 335 568
324 335 353
325 334 725
326 334 683
327 333 797
328 332 50
329 331 450
330 331 329
331 331 688
332 329 49
333 329 791
334 328 942
335 328 933
336 326 139
337 325 543
338 324 464
339 324 734
340 324 453
341 322 147
342 319 37
343 319 946
344 319 183
345 318 339
346 318 110
347 317 471
348 317 168
349 317 481
350 314 13
351 313 332
352 313 146
353 313 502
354 312 138
355 312 400
356 311 855
357 310 106
358 310 882
359 308 255
360 307 601
361 306 497
362 306 706
363 305 181
364 305 570
365 305 545
366 303 201
367 302 69
368 302 212
369 301 419
370 301 469
371 299 408
372 299 482
373 299 834
374 298 348
375 298 186
376 298 472
377 297 938
378 296 483
379 296 33
380 295 187
381 294 701
382 294 723
383 294 876
384 294 216
385 293 997
386 293 952
387 292 12
388 292 252
389 292 587
390 292 894
391 292 567
392 292 496
393 291 392
394 291 357
395 291 267
396 290 872
397 289 814
398 289 402
399 289 296
400 287 576
401 287 505
402 286 155
403 286 750
404 285 114
405 285 245
406 285 819
407 285 329
408 284 127
409 284 449
410 284 223
411 283 392
412 283 313
413 283 536
414 282 791
415 282 428
416 282 548
417 282 260
418 281 465
419 281 910
420 280 856
421 280 937
422 280 59
423 280 786
424 279 90
425 278 287
426 275 690
427 275 251
428 275 246
429 274 434
430 272 793
431 271 38
432 271 772
433 270 113
434 270 818
435 270 950
436 270 614
437 270 74
438 270 406
439 269 449
440 269 170
441 269 989
442 268 200
443 267 806
444 267 181
445 266 623
446 266 715
447 265 362
448 265 304
449 264 953
450 264 362
451 263 101
452 263 787
453 263 288
454 263 84
455 262 828
456 262 59
457 262 328
458 261 537
459 260 750
460 259 289
461 259 138
462 259 332
463 258 331
464 258 285
465 258 586
466 257 85
467 257 720
468 256 808
469 256 5
470 255 264
471 254 866
472 253 408
473 252 988
474 251 820
475 251 451
476 251 817
477 250 208
478 249 391
479 247 379
480 247 589
481 247 730
482 246 33
483 246 845
484 246 578
485 246 287
486 246 81
487 245 575
488 245 611
489 245 191
490 244 327
491 244 300
492 244 99
493 243 47
494 243 644
495 243 536
496 242 709
497 241 357
498 241 473
499 241 472
500 239 445
501 239 539
502 238 109
503 235 647
504 235 705
505 234 62
506 234 217
507 234 847
508 234 242
509 234 750
510 233 577
511 232 267
512 231 813
513 229 828
514 229 767
515 229 995
516 229 97
517 228 617
518 227 187
519 225 511
520 225 872
521 223 679
522 222 121
523 222 32
524 222 842
525 220 286
526 220 371
527 219 515
528 218 900
529 217 139
530 217 659
531 217 843
532 216 375
533 216 346
534 214 280
535 214 264
536 214 876
537 214 796
538 213 27
539 213 151
540 212 140
541 211 172
542 211 362
543 209 162
544 206 83
545 204 602
546 204 813
547 203 826
548 201 951
549 201 615
550 201 596
551 201 777
552 201 978
553 199 877
554 198 331
555 198 170
556 197 349
557 197 163
558 196 325
559 195 324
560 195 164
561 194 686
562 194 808
563 194 4
564 193 569
565 193 958
566 193 20
567 193 93
568 193 985
569 192 591
570 192 567
571 192 831
572 191 655
573 189 800
574 189 673
575 189 113
576 189 979
577 189 354
578 188 874
579 187 41
580 187 236
581 187 6
582 187 162
583 186 81
584 186 740
585 185 880
586 185 284
587 183 775
588 183 304
589 183 464
590 183 667
591 181 203
592 180 480
593 179 94
594 179 402
595 179 889
596 178 552
597 178 962
598 177 485
599 176 406
600 176 471
601 175 996
602 175 919
603 174 654
604 173 940
605 172 752
606 171 846
607 171 239
608 170 457
609 170 245
610 169 494
611 169 950
612 169 371
613 169 149
614 168 971
615 167 173
616 166 545
617 166 97
618 165 783
619 163 51
620 163 545
621 163 374
622 162 547
623 162 129
624 162 80
625 161 660
626 161 207
627 159 28
628 159 851
629 159 95
630 159 744
631 159 498
632 158 665
633 157 975
634 157 191
635 157 854
636 156 360
637 156 23
638 155 547
639 155 721
640 155 994
641 155 929
642 153 820
643 152 197
644 152 860
645 151 622
646 149 648
647 149 549
648 147 511
649 146 858
650 145 667
651 145 360
652 144 778
653 144 38
654 144 450
655 143 877
656 143 877
657 142 440
658 142 180
659 142 802
660 140 134
661 140 452
662 137 290
663 137 173
664 137 609
665 136 528
666 136 703
667 135 539
668 135 956
669 133 523
670 131 208
671 131 201
672 129 994
673 128 595
674 127 37
675 126 814
676 126 931
677 125 14
678 125 16
679 124 397
680 123 563
681 122 787
682 120 396
683 120 190
684 120 796
685 119 150
686 118 444
687 115 256
688 115 707
689 114 677
690 112 850
691 111 87
692 111 83
693 110 968
694 109 782
695 109 433
696 109 15
697 108 480
698 107 995
699 107 778
700 107 233
701 107 172
702 107 579
703 106 475
704 104 431
705 103 941
706 103 132
707 102 46
708 102 25
709 101 195
710 100 920
711 100 399
712 100 20
713 99 3
714 98 31
715 96 141
716 95 525
717 93 219
718 93 971
719 92 484
720 90 638
721 90 449
722 90 382
723 88 819
724 87 300
725 87 667
726 87 509
727 87 112
728 86 27
729 85 966
730 85 629
731 85 47
732 84 272
733 82 738
734 82 923
735 82 699
736 81 591
737 80 870
738 78 648
739 77 750
740 77 390
741 77 660
742 77 107
743 76 930
744 76 791
745 76 253
746 75 243
747 75 675
748 75 474
749 75 196
750 75 896
